p cep 330 4329
1 2
1 3
1 4
1 5
1 6
1 7
1 8
1 9
1 10
1 17
1 18
1 19
1 20
1 21
1 22
1 23
1 24
1 25
1 26
1 27
1 28
1 29
1 30
1 31
1 32
1 33
1 34
1 35
1 36
1 37
1 38
1 39
1 40
1 41
1 42
1 43
1 65
1 66
1 67
1 68
1 69
1 70
1 71
1 74
1 75
1 76
1 77
1 84
2 3
2 4
2 5
2 6
2 7
2 8
2 9
2 10
2 17
2 18
2 19
2 20
2 21
2 22
2 23
2 24
2 25
2 26
2 27
2 28
2 29
2 30
2 31
2 32
2 33
2 34
2 35
2 36
2 37
2 38
2 39
2 40
2 41
2 42
2 43
2 65
2 66
2 67
2 68
2 69
2 70
2 71
2 72
2 73
2 74
2 75
2 76
2 77
2 78
2 79
2 80
2 81
2 82
2 84
3 4
3 5
3 6
3 7
3 8
3 9
3 10
3 17
3 18
3 19
3 20
3 21
3 22
3 23
3 24
3 25
3 26
3 27
3 28
3 29
3 30
3 31
3 32
3 33
3 34
3 35
3 36
3 37
3 38
3 39
3 40
3 41
3 42
3 43
3 44
3 45
3 46
3 69
3 70
3 71
3 74
3 75
3 76
3 77
3 78
3 79
3 80
3 81
3 82
3 83
3 84
4 5
4 6
4 7
4 8
4 9
4 10
4 17
4 18
4 19
4 20
4 21
4 22
4 23
4 24
4 25
4 26
4 27
4 28
4 29
4 30
4 31
4 32
4 33
4 34
4 35
4 36
4 37
4 38
4 39
4 40
4 41
4 42
4 43
4 44
4 45
4 46
4 69
4 70
4 71
4 74
4 75
4 76
4 77
4 78
4 79
4 80
4 81
4 82
4 83
4 84
5 6
5 7
5 8
5 9
5 10
5 11
5 17
5 18
5 19
5 20
5 21
5 22
5 23
5 24
5 25
5 26
5 27
5 28
5 29
5 30
5 31
5 32
5 33
5 34
5 35
5 36
5 37
5 38
5 39
5 40
5 41
5 42
5 43
5 44
5 45
5 46
5 47
5 70
5 71
5 74
5 75
5 76
5 77
5 78
5 79
5 80
5 81
5 82
5 83
5 84
6 7
6 8
6 9
6 10
6 11
6 17
6 18
6 19
6 20
6 21
6 22
6 23
6 24
6 25
6 26
6 27
6 28
6 29
6 30
6 31
6 32
6 33
6 34
6 35
6 36
6 37
6 38
6 39
6 40
6 41
6 42
6 43
6 44
6 45
6 46
6 47
6 70
6 71
6 74
6 75
6 76
6 77
6 78
6 79
6 80
6 81
6 82
6 83
6 84
7 8
7 9
7 10
7 11
7 17
7 18
7 19
7 20
7 21
7 22
7 23
7 24
7 25
7 26
7 27
7 28
7 29
7 30
7 31
7 32
7 33
7 34
7 35
7 36
7 37
7 38
7 39
7 40
7 41
7 42
7 43
7 44
7 45
7 46
7 47
7 48
7 74
7 75
7 76
7 77
7 79
7 80
7 81
7 82
7 83
7 84
8 9
8 10
8 11
8 17
8 18
8 19
8 20
8 21
8 22
8 23
8 24
8 25
8 26
8 27
8 28
8 29
8 30
8 31
8 32
8 33
8 34
8 35
8 36
8 37
8 38
8 39
8 40
8 41
8 42
8 43
8 44
8 45
8 46
8 47
8 48
8 49
8 74
8 75
8 76
8 77
8 80
8 81
8 82
8 83
8 84
9 10
9 11
9 16
9 17
9 18
9 19
9 20
9 21
9 22
9 23
9 24
9 25
9 26
9 27
9 28
9 29
9 30
9 31
9 32
9 33
9 34
9 35
9 36
9 37
9 38
9 39
9 40
9 41
9 42
9 43
9 44
9 45
9 46
9 47
9 48
9 49
9 81
9 82
9 83
9 84
10 11
10 16
10 17
10 18
10 19
10 20
10 21
10 22
10 23
10 24
10 25
10 26
10 27
10 28
10 29
10 30
10 31
10 32
10 33
10 34
10 35
10 36
10 37
10 38
10 39
10 40
10 41
10 42
10 43
10 44
10 45
10 46
10 47
10 48
10 49
10 83
10 84
11 12
11 13
11 14
11 15
11 16
11 17
11 18
11 19
11 47
11 48
11 49
11 50
12 13
12 14
12 15
12 16
12 50
13 14
13 15
13 16
13 50
14 15
14 16
15 16
15 59
16 17
16 18
16 19
16 20
16 21
16 59
17 18
17 19
17 20
17 21
17 22
17 23
17 24
17 25
17 26
17 27
17 28
17 29
17 30
17 31
17 32
17 33
17 34
17 35
17 36
17 37
17 38
17 39
17 40
17 41
17 42
17 43
17 61
17 62
17 63
17 64
17 65
17 66
17 67
17 68
17 84
18 19
18 20
18 21
18 22
18 23
18 24
18 25
18 26
18 27
18 28
18 29
18 30
18 31
18 32
18 33
18 34
18 35
18 36
18 37
18 38
18 39
18 40
18 41
18 42
18 43
18 61
18 62
18 63
18 64
18 65
18 66
18 67
18 68
18 69
18 70
18 84
19 20
19 21
19 22
19 23
19 24
19 25
19 26
19 27
19 28
19 29
19 30
19 31
19 32
19 33
19 34
19 35
19 36
19 37
19 38
19 39
19 40
19 41
19 42
19 43
19 61
19 62
19 63
19 64
19 65
19 66
19 67
19 68
19 69
19 70
19 71
19 84
20 21
20 22
20 23
20 24
20 25
20 26
20 27
20 28
20 29
20 30
20 31
20 32
20 33
20 34
20 35
20 36
20 37
20 38
20 39
20 40
20 41
20 42
20 43
20 61
20 62
20 63
20 64
20 65
20 66
20 67
20 68
20 69
20 70
20 71
20 84
21 22
21 23
21 24
21 25
21 26
21 27
21 28
21 29
21 30
21 31
21 32
21 33
21 34
21 35
21 36
21 37
21 38
21 39
21 40
21 41
21 42
21 43
21 61
21 62
21 63
21 64
21 65
21 66
21 67
21 68
21 69
21 70
21 71
21 74
21 84
22 23
22 24
22 25
22 26
22 27
22 28
22 29
22 30
22 31
22 32
22 33
22 34
22 35
22 36
22 37
22 38
22 39
22 40
22 41
22 42
22 43
22 61
22 62
22 63
22 64
22 65
22 66
22 67
22 68
22 69
22 70
22 71
22 74
22 84
22 107
23 24
23 25
23 26
23 27
23 28
23 29
23 30
23 31
23 32
23 33
23 34
23 35
23 36
23 37
23 38
23 39
23 40
23 41
23 42
23 43
23 61
23 62
23 63
23 64
23 65
23 66
23 67
23 68
23 69
23 70
23 71
23 74
23 75
23 84
23 107
23 108
24 25
24 26
24 27
24 28
24 29
24 30
24 31
24 32
24 33
24 34
24 35
24 36
24 37
24 38
24 39
24 40
24 41
24 42
24 43
24 62
24 63
24 64
24 65
24 66
24 67
24 68
24 69
24 70
24 71
24 72
24 74
24 75
24 76
24 77
24 84
24 107
24 108
25 26
25 27
25 28
25 29
25 30
25 31
25 32
25 33
25 34
25 35
25 36
25 37
25 38
25 39
25 40
25 41
25 42
25 43
25 63
25 64
25 65
25 66
25 67
25 68
25 69
25 70
25 71
25 72
25 73
25 74
25 75
25 76
25 77
25 84
25 107
25 108
25 109
25 110
26 27
26 28
26 29
26 30
26 31
26 32
26 33
26 34
26 35
26 36
26 37
26 38
26 39
26 40
26 41
26 42
26 43
26 64
26 65
26 66
26 67
26 68
26 69
26 70
26 71
26 72
26 73
26 74
26 75
26 76
26 77
26 84
26 108
26 109
26 110
26 111
27 28
27 29
27 30
27 31
27 32
27 33
27 34
27 35
27 36
27 37
27 38
27 39
27 40
27 41
27 42
27 43
27 65
27 66
27 67
27 68
27 69
27 70
27 71
27 72
27 73
27 74
27 75
27 76
27 77
27 84
27 109
27 110
27 111
28 29
28 30
28 31
28 32
28 33
28 34
28 35
28 36
28 37
28 38
28 39
28 40
28 41
28 42
28 43
28 65
28 66
28 67
28 68
28 69
28 70
28 71
28 72
28 73
28 74
28 75
28 76
28 77
28 84
28 111
29 30
29 31
29 32
29 33
29 34
29 35
29 36
29 37
29 38
29 39
29 40
29 41
29 42
29 43
29 65
29 66
29 67
29 68
29 69
29 70
29 71
29 72
29 73
29 74
29 75
29 76
29 77
29 84
29 111
30 31
30 32
30 33
30 34
30 35
30 36
30 37
30 38
30 39
30 40
30 41
30 42
30 43
30 65
30 66
30 67
30 68
30 69
30 70
30 71
30 72
30 73
30 74
30 75
30 76
30 77
30 78
30 84
31 32
31 33
31 34
31 35
31 36
31 37
31 38
31 39
31 40
31 41
31 42
31 43
31 65
31 66
31 67
31 68
31 69
31 70
31 71
31 72
31 73
31 74
31 75
31 76
31 77
31 78
31 79
31 80
31 84
32 33
32 34
32 35
32 36
32 37
32 38
32 39
32 40
32 41
32 42
32 43
32 65
32 66
32 67
32 68
32 69
32 70
32 71
32 72
32 73
32 74
32 75
32 76
32 77
32 78
32 79
32 80
32 81
32 84
33 34
33 35
33 36
33 37
33 38
33 39
33 40
33 41
33 42
33 43
33 65
33 66
33 67
33 68
33 69
33 70
33 71
33 72
33 73
33 74
33 75
33 76
33 77
33 78
33 79
33 80
33 81
33 82
33 84
34 35
34 36
34 37
34 38
34 39
34 40
34 41
34 42
34 43
34 65
34 66
34 67
34 68
34 69
34 70
34 71
34 72
34 73
34 74
34 75
34 76
34 77
34 78
34 79
34 80
34 81
34 82
34 83
34 84
35 36
35 37
35 38
35 39
35 40
35 41
35 42
35 43
35 65
35 66
35 67
35 68
35 69
35 70
35 71
35 72
35 73
35 74
35 75
35 76
35 77
35 78
35 79
35 80
35 81
35 82
35 83
35 84
36 37
36 38
36 39
36 40
36 41
36 42
36 43
36 66
36 67
36 68
36 69
36 70
36 71
36 72
36 73
36 74
36 75
36 76
36 77
36 78
36 79
36 80
36 81
36 82
36 83
36 84
37 38
37 39
37 40
37 41
37 42
37 43
37 44
37 66
37 67
37 68
37 69
37 70
37 71
37 72
37 73
37 74
37 75
37 76
37 77
37 78
37 79
37 80
37 81
37 82
37 83
37 84
38 39
38 40
38 41
38 42
38 43
38 44
38 45
38 66
38 67
38 68
38 69
38 70
38 71
38 72
38 73
38 74
38 75
38 76
38 77
38 78
38 79
38 80
38 81
38 82
38 83
38 84
39 40
39 41
39 42
39 43
39 44
39 45
39 67
39 68
39 69
39 70
39 71
39 72
39 73
39 74
39 75
39 76
39 77
39 78
39 79
39 80
39 81
39 82
39 83
39 84
40 41
40 42
40 43
40 44
40 45
40 68
40 69
40 70
40 71
40 74
40 75
40 76
40 77
40 78
40 79
40 80
40 81
40 82
40 83
40 84
41 42
41 43
41 44
41 45
41 46
41 68
41 69
41 70
41 71
41 74
41 75
41 76
41 77
41 78
41 79
41 80
41 81
41 82
41 83
41 84
42 43
42 44
42 45
42 46
42 68
42 69
42 70
42 71
42 74
42 75
42 76
42 77
42 78
42 79
42 80
42 81
42 82
42 83
42 84
43 44
43 65
43 66
43 67
43 68
43 69
43 70
43 71
43 72
43 73
43 74
43 75
43 76
43 77
43 78
43 79
43 80
43 81
43 82
43 83
43 84
43 115
43 116
43 117
43 118
43 125
44 45
44 46
44 47
44 48
44 49
44 77
44 78
44 79
44 80
44 81
44 82
44 83
44 85
44 86
44 120
44 122
44 123
44 124
45 46
45 47
45 48
45 49
45 78
45 79
45 80
45 81
45 82
45 83
45 85
45 86
45 87
45 122
45 123
45 124
46 47
46 48
46 49
46 80
46 81
46 82
46 83
46 85
46 86
46 87
46 88
46 123
46 124
47 48
47 49
47 50
47 81
47 82
47 83
47 85
47 86
47 87
47 88
47 89
47 123
47 124
48 49
48 50
48 82
48 83
48 85
48 86
48 87
48 88
48 89
48 124
49 50
49 83
49 86
49 87
49 88
49 89
50 88
50 89
51 52
51 53
51 54
51 90
51 91
51 92
51 93
51 94
51 133
52 53
52 92
53 54
53 55
53 92
53 93
53 94
53 95
53 96
54 55
54 56
54 93
54 94
54 95
54 96
54 97
54 136
54 137
55 56
55 57
55 93
55 94
55 95
55 96
55 97
55 98
55 136
55 137
56 57
56 94
56 95
56 96
56 97
56 98
56 137
56 138
57 58
57 97
57 98
57 99
57 138
57 139
57 140
58 59
58 99
58 100
58 139
58 140
58 141
59 60
59 61
59 62
59 99
59 100
59 101
59 102
59 142
60 61
60 62
60 63
60 64
60 100
60 101
60 102
60 103
60 104
60 105
60 142
60 143
60 144
61 62
61 63
61 64
61 65
61 66
61 67
61 101
61 102
61 103
61 104
61 105
61 106
61 107
61 146
62 63
62 64
62 65
62 66
62 67
62 68
62 102
62 103
62 104
62 105
62 106
62 107
62 108
62 146
62 147
63 64
63 65
63 66
63 67
63 68
63 69
63 102
63 103
63 104
63 105
63 106
63 107
63 108
63 109
63 146
63 147
63 148
64 65
64 66
64 67
64 68
64 69
64 70
64 102
64 103
64 104
64 105
64 106
64 107
64 108
64 109
64 110
64 146
64 147
64 148
65 66
65 67
65 68
65 69
65 70
65 71
65 84
65 103
65 104
65 105
65 106
65 107
65 108
65 109
65 110
65 111
66 67
66 68
66 69
66 70
66 71
66 72
66 74
66 84
66 104
66 105
66 106
66 107
66 108
66 109
66 110
66 111
67 68
67 69
67 70
67 71
67 72
67 73
67 74
67 75
67 84
67 105
67 106
67 107
67 108
67 109
67 110
67 111
67 112
68 69
68 70
68 71
68 72
68 73
68 74
68 75
68 76
68 77
68 84
68 106
68 107
68 108
68 109
68 110
68 111
68 112
68 113
68 150
69 70
69 71
69 72
69 73
69 74
69 75
69 76
69 77
69 84
69 107
69 108
69 109
69 110
69 111
69 112
69 113
69 114
69 115
69 151
69 152
70 71
70 72
70 73
70 74
70 75
70 76
70 77
70 84
70 107
70 108
70 109
70 110
70 111
70 112
70 113
70 114
70 115
70 116
70 125
70 152
71 72
71 73
71 74
71 75
71 76
71 77
71 78
71 84
71 107
71 108
71 109
71 110
71 111
71 112
71 113
71 114
71 115
71 116
71 117
71 118
71 125
71 152
72 73
72 74
72 75
72 76
72 77
72 78
72 84
72 108
72 109
72 110
72 111
72 112
72 113
72 114
72 115
72 116
72 117
72 118
72 152
72 153
72 154
72 156
73 74
73 75
73 76
73 77
73 78
73 79
73 84
73 109
73 110
73 111
73 112
73 113
73 114
73 115
73 116
73 117
73 118
73 152
73 154
73 155
73 156
73 157
74 75
74 76
74 77
74 78
74 79
74 80
74 81
74 84
74 110
74 111
74 112
74 113
74 114
74 115
74 116
74 117
74 118
74 119
74 125
75 76
75 77
75 78
75 79
75 80
75 81
75 82
75 84
75 111
75 112
75 113
75 114
75 115
75 116
75 117
75 118
75 119
75 120
75 125
76 77
76 78
76 79
76 80
76 81
76 82
76 83
76 84
76 111
76 113
76 114
76 115
76 116
76 117
76 118
76 119
76 120
76 125
77 78
77 79
77 80
77 81
77 82
77 83
77 84
77 113
77 114
77 115
77 116
77 117
77 118
77 119
77 120
77 125
78 79
78 80
78 81
78 82
78 83
78 84
78 115
78 116
78 117
78 118
78 119
78 120
78 121
78 122
78 123
78 157
78 158
78 159
79 80
79 81
79 82
79 83
79 84
79 115
79 116
79 117
79 118
79 119
79 120
79 121
79 122
79 123
79 124
79 158
79 159
80 81
80 82
80 83
80 84
80 85
80 115
80 116
80 117
80 118
80 119
80 120
80 121
80 122
80 123
80 124
80 162
81 82
81 83
81 84
81 85
81 86
81 117
81 118
81 119
81 120
81 121
81 122
81 123
81 124
81 163
82 83
82 84
82 85
82 86
82 117
82 118
82 119
82 120
82 121
82 122
82 123
82 124
82 163
83 85
83 86
83 120
83 121
83 122
83 123
83 124
84 110
84 111
84 115
84 116
84 117
84 118
84 125
84 166
85 86
85 87
85 88
85 121
85 122
85 123
85 124
85 126
85 127
85 163
85 164
85 165
86 87
86 88
86 122
86 123
86 124
86 126
86 127
86 128
86 163
86 164
86 165
87 88
87 89
87 124
87 126
87 127
87 128
87 165
88 89
88 126
88 127
88 128
88 129
89 128
89 129
89 131
90 91
90 92
90 130
90 131
90 132
90 133
90 171
90 172
91 92
91 93
91 130
91 131
91 132
91 133
91 134
92 93
92 94
92 95
92 132
92 133
92 134
93 94
93 95
93 96
93 132
93 133
93 134
93 135
93 136
93 137
94 95
94 96
94 97
94 133
94 134
94 135
94 136
94 137
95 96
95 97
95 98
95 134
95 135
95 136
95 137
95 138
96 97
96 98
96 135
96 136
96 137
96 138
97 98
97 136
97 137
97 138
97 139
98 137
98 138
98 139
98 140
99 100
99 139
99 140
99 141
99 180
99 181
99 182
100 101
100 140
100 141
100 142
100 181
100 182
101 102
101 103
101 104
101 141
101 142
101 143
101 144
101 145
101 183
101 184
102 103
102 104
102 105
102 106
102 107
102 142
102 143
102 144
102 145
102 146
102 147
102 184
102 185
102 186
103 104
103 105
103 106
103 107
103 142
103 143
103 144
103 145
103 146
103 147
103 148
103 184
103 185
103 186
103 187
103 188
104 105
104 106
104 107
104 108
104 142
104 143
104 144
104 145
104 146
104 147
104 148
104 149
104 184
104 185
104 186
104 187
104 188
105 106
105 107
105 108
105 109
105 143
105 144
105 145
105 146
105 147
105 148
105 149
105 185
105 186
105 187
105 188
105 189
106 107
106 108
106 109
106 110
106 144
106 145
106 146
106 147
106 148
106 149
106 150
106 186
106 187
106 188
106 189
106 190
107 108
107 109
107 110
107 111
107 146
107 147
107 148
107 149
107 150
107 151
107 152
107 188
107 189
107 190
107 191
108 109
108 110
108 111
108 112
108 146
108 147
108 148
108 149
108 150
108 151
108 152
108 188
108 189
108 190
108 191
108 192
109 110
109 111
109 112
109 113
109 146
109 147
109 148
109 149
109 150
109 151
109 152
109 189
109 190
109 191
109 192
109 193
110 111
110 112
110 113
110 114
110 115
110 147
110 148
110 149
110 150
110 151
110 152
110 153
110 190
110 191
110 192
110 193
111 112
111 113
111 114
111 115
111 116
111 148
111 149
111 150
111 151
111 152
111 153
111 154
111 191
111 192
111 193
112 113
112 114
112 115
112 116
112 150
112 151
112 152
112 153
112 154
112 155
112 156
112 192
112 193
112 194
113 114
113 115
113 116
113 117
113 118
113 151
113 152
113 153
113 154
113 155
113 156
113 157
113 193
113 194
114 115
114 116
114 117
114 118
114 152
114 153
114 154
114 155
114 156
114 157
114 158
114 159
114 193
114 194
114 197
115 116
115 117
115 118
115 119
115 120
115 125
115 152
115 153
115 154
115 155
115 156
115 157
115 158
115 159
116 117
116 118
116 119
116 120
116 125
116 154
116 155
116 156
116 157
116 158
116 159
116 160
117 118
117 119
117 120
117 125
117 155
117 156
117 157
117 158
117 159
117 160
117 161
118 119
118 120
118 121
118 123
118 125
118 156
118 157
118 158
118 159
118 160
118 161
118 162
119 120
119 121
119 122
119 123
119 156
119 157
119 158
119 159
119 160
119 161
119 162
119 163
119 199
119 200
119 201
120 121
120 122
120 123
120 124
120 157
120 158
120 159
120 160
120 161
120 162
120 163
120 200
120 201
121 122
121 123
121 124
121 159
121 160
121 161
121 162
121 163
121 164
121 165
121 201
121 202
121 203
121 204
122 123
122 124
122 126
122 160
122 161
122 162
122 163
122 164
122 165
122 203
122 204
123 124
123 126
123 161
123 162
123 163
123 164
123 165
124 126
124 127
124 162
124 163
124 164
124 165
125 166
125 207
126 127
126 128
126 163
126 164
126 165
126 167
126 168
126 204
126 205
126 206
126 208
126 209
126 247
127 128
127 164
127 165
127 167
127 168
127 169
127 206
127 208
127 209
128 129
128 165
128 167
128 168
128 169
128 209
128 210
129 130
129 131
129 169
129 170
129 171
129 172
129 211
130 131
130 132
130 170
130 171
130 172
131 132
131 133
131 134
131 171
131 172
131 173
131 174
132 133
132 134
132 135
132 171
132 172
132 173
132 174
132 175
133 134
133 135
133 136
133 172
133 173
133 174
133 175
134 135
134 136
134 137
134 172
134 173
134 174
134 175
134 176
134 177
134 178
135 136
135 137
135 138
135 174
135 175
135 176
135 177
135 178
135 179
136 137
136 138
136 139
136 174
136 175
136 176
136 177
136 178
136 179
137 138
137 139
137 176
137 177
137 178
137 179
138 139
138 140
138 177
138 178
138 179
138 180
139 140
139 178
139 179
139 180
139 181
140 141
140 181
140 182
141 142
141 181
141 182
141 183
142 143
142 144
142 145
142 182
142 183
142 184
142 185
142 186
142 223
142 224
142 225
143 144
143 145
143 146
143 147
143 183
143 184
143 185
143 186
143 187
143 224
143 225
143 226
143 227
144 145
144 146
144 147
144 183
144 184
144 185
144 186
144 187
144 188
144 224
144 225
144 226
144 227
145 146
145 147
145 148
145 184
145 185
145 186
145 187
145 188
145 189
145 225
145 226
145 227
145 228
146 147
146 148
146 149
146 150
146 184
146 185
146 186
146 187
146 188
146 189
146 190
146 226
146 227
146 228
146 229
146 230
147 148
147 149
147 150
147 151
147 185
147 186
147 187
147 188
147 189
147 190
147 191
147 227
147 228
147 229
147 230
148 149
148 150
148 151
148 186
148 187
148 188
148 189
148 190
148 191
148 192
148 228
148 229
148 230
148 231
149 150
149 151
149 152
149 187
149 188
149 189
149 190
149 191
149 192
149 193
149 228
149 229
149 230
149 231
149 232
150 151
150 152
150 153
150 188
150 189
150 190
150 191
150 192
150 193
150 229
150 230
150 231
150 232
150 233
151 152
151 153
151 154
151 189
151 190
151 191
151 192
151 193
151 194
151 231
151 232
151 233
151 234
152 153
152 154
152 155
152 190
152 191
152 192
152 193
152 194
152 195
152 231
152 232
152 233
152 234
152 235
153 154
153 155
153 156
153 191
153 192
153 193
153 194
153 195
153 196
153 233
153 234
153 235
153 236
154 155
154 156
154 157
154 192
154 193
154 194
154 195
154 196
154 197
154 234
154 235
154 236
154 237
155 156
155 157
155 158
155 159
155 193
155 194
155 195
155 196
155 197
155 198
155 235
155 236
155 237
156 157
156 158
156 159
156 160
156 194
156 195
156 196
156 197
156 198
156 199
156 200
156 236
156 239
157 158
157 159
157 160
157 161
157 196
157 197
157 198
157 199
157 200
157 201
157 239
157 240
158 159
158 160
158 161
158 162
158 197
158 198
158 199
158 200
158 201
158 239
158 240
158 241
158 242
159 160
159 161
159 162
159 197
159 198
159 199
159 200
159 201
159 202
159 239
159 240
159 241
159 242
160 161
160 162
160 163
160 198
160 199
160 200
160 201
160 202
160 203
160 240
160 241
160 242
160 243
161 162
161 163
161 164
161 198
161 199
161 200
161 201
161 202
161 203
161 204
161 241
161 242
161 243
161 244
162 163
162 164
162 165
162 200
162 201
162 202
162 203
162 204
162 242
162 243
162 244
162 245
163 164
163 165
163 201
163 202
163 203
163 204
163 205
163 206
163 245
163 246
164 165
164 167
164 203
164 204
164 205
164 206
164 245
164 246
164 247
165 167
165 168
165 204
165 205
165 206
165 208
165 246
165 247
166 207
166 248
167 168
167 169
167 205
167 206
167 208
167 209
167 210
167 246
167 247
167 249
167 250
167 251
168 169
168 206
168 208
168 209
168 210
168 247
168 250
168 251
169 170
169 209
169 210
169 211
169 212
169 251
169 252
170 171
170 172
170 211
171 172
171 173
171 211
171 212
172 173
172 174
172 175
172 211
172 212
172 214
173 174
173 175
173 176
173 177
173 212
173 213
173 214
173 215
173 216
174 175
174 176
174 177
174 178
174 214
175 176
175 177
175 178
175 179
175 213
175 214
175 215
175 216
175 217
175 218
175 219
176 177
176 178
176 179
176 180
176 214
176 215
176 216
176 217
176 218
176 219
176 220
177 178
177 179
177 180
177 216
177 217
177 218
177 219
177 220
178 179
178 180
178 216
178 217
178 218
178 219
178 220
178 221
179 180
179 181
179 217
179 218
179 219
179 220
179 221
179 222
180 181
180 218
180 219
180 220
180 221
180 222
180 223
181 182
181 222
181 223
182 183
183 184
183 185
183 224
183 225
183 226
184 185
184 186
184 187
184 223
184 224
184 225
184 226
184 227
184 228
184 265
184 266
184 267
185 186
185 187
185 188
185 224
185 225
185 226
185 227
185 228
185 229
185 265
185 266
185 267
185 268
186 187
186 188
186 189
186 224
186 225
186 226
186 227
186 228
186 229
186 230
186 266
186 267
186 268
187 188
187 189
187 190
187 225
187 226
187 227
187 228
187 229
187 230
187 267
187 268
188 189
188 190
188 191
188 192
188 226
188 227
188 228
188 229
188 230
188 231
188 232
188 268
188 269
188 270
188 271
189 190
189 191
189 192
189 227
189 228
189 229
189 230
189 231
189 232
189 233
189 268
189 269
189 270
189 271
189 272
190 191
190 192
190 193
190 228
190 229
190 230
190 231
190 232
190 233
190 234
190 269
190 270
190 271
190 272
190 273
191 192
191 193
191 194
191 228
191 229
191 230
191 231
191 232
191 233
191 234
191 270
191 271
191 272
191 273
191 274
192 193
192 194
192 230
192 231
192 232
192 233
192 234
192 235
192 272
192 273
192 274
192 275
192 276
193 194
193 195
193 231
193 232
193 233
193 234
193 235
193 236
193 272
193 273
193 274
193 275
193 276
194 195
194 196
194 197
194 232
194 233
194 234
194 235
194 236
194 237
194 275
194 276
194 277
195 196
195 197
195 234
195 235
195 236
195 237
195 276
195 277
195 278
196 197
196 198
196 235
196 236
196 237
196 238
196 239
196 277
196 278
197 198
197 199
197 200
197 201
197 236
197 237
197 238
197 239
197 240
197 241
197 277
197 278
197 279
197 280
198 199
198 200
198 201
198 237
198 238
198 239
198 240
198 241
198 242
198 278
198 279
198 280
198 281
198 282
199 200
199 201
199 202
199 238
199 239
199 240
199 241
199 242
199 243
199 279
199 280
199 281
199 282
199 283
200 201
200 202
200 203
200 238
200 239
200 240
200 241
200 242
200 243
200 244
200 280
200 281
200 282
200 283
200 284
201 202
201 203
201 204
201 239
201 240
201 241
201 242
201 243
201 244
201 245
201 281
201 282
201 283
201 284
201 285
202 203
202 204
202 240
202 241
202 242
202 243
202 244
202 245
202 282
202 283
202 284
202 285
202 286
203 204
203 205
203 241
203 242
203 243
203 244
203 245
203 246
203 283
203 284
203 285
203 286
203 287
204 205
204 206
204 243
204 244
204 245
204 246
204 247
204 285
204 286
204 287
204 288
205 206
205 208
205 244
205 245
205 246
205 247
205 287
205 288
206 208
206 209
206 245
206 246
206 247
206 249
206 288
207 248
207 289
207 297
207 298
207 299
207 300
207 301
207 302
207 303
207 330
208 209
208 210
208 246
208 247
208 249
208 250
208 251
208 288
209 210
209 247
209 249
209 250
209 251
209 252
210 211
210 212
210 250
210 251
210 252
211 212
212 213
212 214
212 215
212 251
212 252
212 253
212 254
212 255
213 214
213 215
213 216
213 217
213 252
213 253
213 254
213 255
213 256
214 215
214 216
214 217
214 218
214 253
214 254
214 255
214 256
215 216
215 217
215 218
215 219
215 220
215 253
215 254
215 255
215 256
215 257
215 258
215 259
215 260
215 261
216 217
216 218
216 219
216 220
216 221
216 253
216 254
216 255
216 256
216 257
216 258
216 259
216 260
216 261
217 218
217 219
217 220
217 221
217 254
217 255
217 256
217 257
217 258
217 259
217 260
217 261
217 262
218 219
218 220
218 221
218 255
218 256
218 257
218 258
218 259
218 260
218 261
218 262
219 220
219 221
219 222
219 256
219 257
219 258
219 259
219 260
219 261
219 262
219 263
220 221
220 222
220 223
220 257
220 258
220 259
220 260
220 261
220 262
220 263
220 264
221 222
221 223
221 258
221 259
221 260
221 261
221 262
221 263
221 264
222 223
222 263
222 264
223 224
223 225
223 263
223 264
223 265
223 266
224 225
224 226
224 227
224 265
224 266
224 267
225 226
225 227
225 228
225 265
225 266
225 267
225 268
226 227
226 228
226 229
226 265
226 266
226 267
226 268
227 228
227 229
227 230
227 265
227 266
227 267
227 268
228 229
228 230
228 231
228 232
228 265
228 266
228 267
228 268
228 269
228 270
228 271
228 272
228 308
228 309
229 230
229 231
229 232
229 266
229 267
229 268
229 269
229 270
229 271
229 272
229 273
229 309
230 231
230 232
230 233
230 268
230 269
230 270
230 271
230 272
230 273
230 274
231 232
231 233
231 234
231 268
231 269
231 270
231 271
231 272
231 273
231 274
231 275
231 309
231 310
231 311
231 312
231 313
231 314
231 315
232 233
232 234
232 235
232 269
232 270
232 271
232 272
232 273
232 274
232 275
232 276
232 311
232 312
232 313
232 314
232 315
232 316
233 234
233 235
233 236
233 270
233 271
233 272
233 273
233 274
233 275
233 276
233 316
233 317
234 235
234 236
234 271
234 272
234 273
234 274
234 275
234 276
234 277
234 316
234 317
234 318
235 236
235 237
235 273
235 274
235 275
235 276
235 277
235 278
235 316
235 317
236 237
236 238
236 274
236 275
236 276
236 277
236 278
236 317
236 318
236 319
237 238
237 239
237 276
237 277
237 278
237 279
237 280
237 319
238 239
238 240
238 241
238 277
238 278
238 279
238 280
238 281
238 282
238 320
239 240
239 241
239 242
239 243
239 278
239 279
239 280
239 281
239 282
239 283
239 284
239 320
239 321
239 322
239 323
240 241
240 242
240 243
240 278
240 279
240 280
240 281
240 282
240 283
240 284
240 285
240 320
240 321
240 322
240 323
241 242
241 243
241 244
241 279
241 280
241 281
241 282
241 283
241 284
241 285
241 320
241 321
241 322
241 323
241 326
242 243
242 244
242 245
242 280
242 281
242 282
242 283
242 284
242 285
242 286
242 321
242 322
242 323
242 326
242 327
243 244
243 245
243 246
243 280
243 281
243 282
243 283
243 284
243 285
243 286
243 287
243 326
244 245
244 246
244 282
244 283
244 284
244 285
244 286
244 287
244 288
244 326
244 327
245 246
245 247
245 249
245 283
245 284
245 285
245 286
245 287
245 288
245 328
246 247
246 249
246 250
246 285
246 286
246 287
246 288
246 290
246 329
247 249
247 250
247 286
247 287
247 288
248 257
248 262
248 289
248 294
248 295
248 296
248 297
248 298
248 299
248 300
248 301
248 302
248 303
248 304
248 305
248 306
248 310
248 311
248 312
248 313
248 314
248 315
248 330
249 250
249 251
249 252
249 286
249 287
249 288
249 290
249 291
249 292
249 293
249 328
249 329
250 251
250 252
250 253
250 287
250 288
250 290
250 291
250 292
250 293
251 252
251 253
252 253
252 254
252 292
253 254
253 255
253 256
253 292
253 293
253 295
253 296
254 255
254 256
254 257
254 258
254 259
254 260
254 292
254 293
254 294
254 295
254 296
254 297
255 256
255 257
255 258
255 259
255 260
255 261
255 293
255 294
255 295
255 296
256 257
256 258
256 259
256 260
256 261
256 294
256 295
256 296
257 258
257 259
257 260
257 261
257 262
257 293
257 294
257 295
257 296
257 297
257 298
257 299
257 300
257 301
257 302
257 303
257 304
258 259
258 260
258 261
258 262
258 263
258 294
258 295
258 296
258 297
258 298
258 299
258 300
258 301
258 302
258 303
258 304
258 305
259 260
259 261
259 262
259 263
259 264
259 294
259 295
259 296
259 297
259 298
259 299
259 300
259 301
259 302
259 303
259 304
259 305
259 306
260 261
260 262
260 263
260 264
260 295
260 296
260 297
260 298
260 299
260 300
260 301
260 302
260 303
260 304
260 305
260 306
261 262
261 263
261 264
261 296
261 297
261 298
261 299
261 300
261 301
261 302
261 303
261 304
261 305
261 306
262 263
262 264
262 296
262 297
262 298
262 299
262 300
262 301
262 302
262 303
262 304
262 305
262 306
262 307
262 308
262 310
263 264
263 265
263 266
263 304
263 305
263 306
263 307
263 308
264 265
264 266
264 268
264 269
264 304
264 305
264 306
264 307
264 308
264 309
265 266
265 267
265 268
265 269
265 270
265 305
265 306
265 307
265 308
265 309
266 267
266 268
266 269
266 270
266 271
266 305
266 306
266 307
266 308
266 309
267 268
267 269
267 307
267 308
267 309
268 269
268 270
268 271
268 272
268 306
268 307
268 308
268 309
268 310
268 311
269 270
269 271
269 272
269 273
269 274
269 304
269 305
269 306
269 307
269 308
269 309
269 310
269 311
269 312
269 313
269 314
269 315
270 271
270 272
270 273
270 274
270 275
270 305
270 306
270 307
270 308
270 309
270 310
270 311
270 312
270 313
270 314
270 315
271 272
271 273
271 274
271 275
271 305
271 306
271 307
271 308
271 309
271 310
271 311
271 312
271 313
271 314
271 315
271 316
272 273
272 274
272 275
272 276
272 306
272 307
272 308
272 309
272 310
272 311
272 312
272 313
272 314
272 315
272 316
272 317
273 274
273 275
273 276
273 309
273 310
273 311
273 312
273 313
273 314
273 315
273 316
273 317
273 318
274 275
274 276
274 277
274 310
274 311
274 312
274 313
274 314
274 315
274 316
274 317
274 318
275 276
275 277
275 310
275 311
275 312
275 313
275 314
275 315
275 316
275 317
275 318
275 319
276 277
276 278
276 314
276 315
276 316
276 317
276 318
276 319
277 278
277 279
277 316
277 317
277 318
277 319
277 320
278 279
278 280
278 317
278 318
278 319
278 320
278 321
279 280
279 281
279 282
279 283
279 319
279 320
279 321
279 322
280 281
280 282
280 283
280 284
280 319
280 320
280 321
280 322
280 323
280 324
281 282
281 283
281 284
281 285
281 320
281 321
281 322
281 323
281 324
281 325
281 326
282 283
282 284
282 285
282 286
282 320
282 321
282 322
282 323
282 324
282 325
282 326
282 327
283 284
283 285
283 286
283 320
283 321
283 322
283 323
283 324
283 325
283 326
283 327
283 328
284 285
284 286
284 287
284 321
284 322
284 323
284 324
284 325
284 326
284 327
284 328
284 329
285 286
285 287
285 288
285 290
285 322
285 323
285 324
285 325
285 326
285 327
285 328
285 329
286 287
286 288
286 290
286 291
286 323
286 325
286 326
286 327
286 328
286 329
287 288
287 290
287 291
287 292
287 326
287 327
287 328
287 329
288 290
288 291
288 292
288 326
288 327
288 328
288 329
289 294
289 295
289 296
289 297
289 298
289 299
289 300
289 301
289 302
289 303
289 304
289 305
289 306
289 310
289 311
289 312
289 313
289 314
289 315
289 316
289 317
289 330
290 291
290 292
290 293
290 294
290 324
290 325
290 326
290 327
290 328
290 329
291 292
291 293
291 294
291 295
291 326
291 327
291 328
291 329
292 293
292 294
292 295
292 296
292 327
292 328
292 329
293 294
293 295
293 296
293 297
293 298
293 299
293 328
293 329
294 295
294 296
294 297
294 298
294 299
294 300
294 301
294 302
294 303
294 329
294 330
295 296
295 297
295 298
295 299
295 300
295 301
295 302
295 303
295 330
296 297
296 298
296 299
296 300
296 301
296 302
296 303
296 304
296 330
297 298
297 299
297 300
297 301
297 302
297 303
297 304
297 305
297 306
297 310
297 311
297 312
297 330
298 299
298 300
298 301
298 302
298 303
298 304
298 305
298 306
298 310
298 311
298 312
298 330
299 300
299 301
299 302
299 303
299 304
299 305
299 306
299 310
299 311
299 312
299 313
299 330
300 301
300 302
300 303
300 304
300 305
300 306
300 310
300 311
300 312
300 313
300 314
300 330
301 302
301 303
301 304
301 305
301 306
301 307
301 308
301 309
301 310
301 311
301 312
301 313
301 314
301 315
301 330
302 303
302 304
302 305
302 306
302 307
302 308
302 309
302 310
302 311
302 312
302 313
302 314
302 315
302 330
303 304
303 305
303 306
303 307
303 308
303 309
303 310
303 311
303 312
303 313
303 314
303 315
303 330
304 305
304 306
304 307
304 308
304 309
304 310
304 311
304 312
304 313
304 330
305 306
305 307
305 308
305 309
305 310
305 311
305 312
305 313
305 314
305 315
305 330
306 307
306 308
306 309
306 310
306 311
306 312
306 313
306 314
306 315
306 330
307 308
307 309
307 310
307 311
307 312
307 313
307 314
308 309
308 310
308 311
308 312
308 313
308 314
308 315
309 310
309 311
309 312
309 313
309 314
309 315
310 311
310 312
310 313
310 314
310 315
310 316
310 330
311 312
311 313
311 314
311 315
311 316
311 317
311 330
312 313
312 314
312 315
312 316
312 317
312 318
312 330
313 314
313 315
313 316
313 317
313 318
313 330
314 315
314 316
314 317
314 318
314 330
315 316
315 317
315 318
315 330
316 317
316 318
316 319
316 330
317 318
317 319
318 319
318 321
318 324
319 320
319 321
319 322
319 323
319 324
320 321
320 322
320 323
320 324
321 322
321 323
321 324
321 325
321 326
321 327
322 323
322 324
322 325
322 326
322 327
322 328
323 324
323 325
323 326
323 327
323 328
323 329
324 325
324 326
324 327
324 328
324 329
325 326
325 327
325 328
325 329
326 327
326 328
326 329
327 328
327 329
328 329
